L=18;
no=10;
njo=[11,10,10,11,11,11,11,11,10,10];
djo=[24,17,21,27,16,17,16,29,16,16];
trab=[2,12,2,2,2,2,6,12,2,2,2,3,6,6,2,6,2,12,4,3,12,2,6,4,3,2,2,6,6,6,2,4,6,2,6,2,6,6,2,6,6,18,12,18,2,6,3,18,2,2,2,2,4,4,3,6,2,6,4,3,3,12,2,2,6,2,6,3,12,12,18,6,2,6,6,12,3,3,6,6,2,2,2,3,6,6,18,6,4,2,2,6,2,12,2,3,6,2,6,18,6,3,12,2,6,3,6,6,6,2,3,3,6,2,3,3,4,3,12,4,3,6,2,4,6,6,4,2,3,3,18,6,3,4,3,2,2,2,3,3,6,3,2,18,3,4,6,3,2,3,6,6,2,12,6,3,6,3,3,2,4,12,6,3,2,4,12,2,12,6,12,12,4,12,6,4,2,3,3,6,6,4,6,2,6,3,2,2,6,2,2,3,2,2,6,3,3,2,2];
nprec=20;
prec=[| 3, 15,
      | 4, 19,
      | 8, 21,
      | 17, 23,
      | 34, 48,
      | 38, 49,
      | 43, 56,
      | 47, 59,
      | 49, 62,
      | 51, 64,
      | 63, 67,
      | 65, 80,
      | 69, 85,
      | 71, 86,
      | 76, 92,
      | 79, 95,
      | 80, 96,
      | 89, 97,
      | 91, 98,
      | 92, 105 |];


%%%%%%%%%%%%%%%%%%%%%%%%%%%%%%%%%%%%%%%%%%%%%%%%%%%%%%%%%%%%%%%%%%%%%%
% 10
%
% 11   1  11  24 114
%  2  12   2   2   2   2   6  12   2   2   2   3   6   6   2   6   2  12   4   3  12   2   6   4 
%  1   1   1   0   0
%  1   2   2   0   0
%  1   3   3   0   1
%      2   4  15
%  1   4   4   0   1
%      2   8  19
%  1   5   5   0   0
%  1   6   6   0   0
%  1   7   7   0   0
%  1   8   8   0   1
%      2  10  21
%  1   9   9   0   0
%  1  10  10   0   0
%  1  11  11   0   0
%
% 10  12  21  17  73
%  3   2   2   6   6   6   2   4   6   2   6   2   6   6   2   6   6 
%  2   1  12   0   0
%  2   2  13   0   0
%  2   3  14   0   0
%  2   4  15   1   0
%      1   3   3
%  2   5  16   0   0
%  2   6  17   0   1
%      3   2  23
%  2   7  18   0   0
%  2   8  19   1   0
%      1   4   4
%  2   9  20   0   0
%  2  10  21   1   0
%      1   8   8
%
% 10  22  31  21 132
% 18  12  18   2   6   3  18   2   2   2   2   4   4   3   6   2   6   4   3   3  12 
%  3   1  22   0   0
%  3   2  23   1   0
%      2   6  17
%  3   3  24   0   0
%  3   4  25   0   0
%  3   5  26   0   0
%  3   6  27   0   0
%  3   7  28   0   0
%  3   8  29   0   0
%  3   9  30   0   0
%  3  10  31   0   0
%
% 11  32  42  27 162
%  2   2   6   2   6   3  12  12  18   6   2   6   6  12   3   3   6   6   2   2   2   3   6   6  18   6   4 
%  4   1  32   0   0
%  4   2  33   0   0
%  4   3  34   0   1
%      5   6  48
%  4   4  35   0   0
%  4   5  36   0   0
%  4   6  37   0   0
%  4   7  38   0   1
%      5   7  49
%  4   8  39   0   0
%  4   9  40   0   0
%  4  10  41   0   0
%  4  11  42   0   0
%
% 11  43  53  16  90
%  2   2   6   2  12   2   3   6   2   6  18   6   3  12   2   6 
%  5   1  43   0   1
%      6   3  56
%  5   2  44   0   0
%  5   3  45   0   0
%  5   4  46   0   0
%  5   5  47   0   1
%      6   6  59
%  5   6  48   1   0
%      4   3  34
%  5   7  49   1   1
%      4   7  38
%      6   9  62
%  5   8  50   0   0
%  5   9  51   0   1
%      6  11  64
%  5  10  52   0   0
%  5  11  53   0   0
%
% 11  54  64  17  75
%  3   6   6   6   2   3   3   6   2   3   3   4   3  12   4   3   6 
%  6   1  54   0   0
%  6   2  55   0   0
%  6   3  56   1   0
%      5   1  43
%  6   4  57   0   0
%  6   5  58   0   0
%  6   6  59   1   0
%      5   5  47
%  6   7  60   0   0
%  6   8  61   0   0
%  6   9  62   1   0
%      5   7  49
%  6  10  63   0   1
%      7   3  67
%  6  11  64   1   0
%      5   9  51
%
% 11  65  75  16  70
%  2   4   6   6   4   2   3   3  18   6   3   4   3   2   2   2 
%  7   1  65   0   1
%      8   5  80
%  7   2  66   0   0
%  7   3  67   1   0
%      6  10  63
%  7   4  68   0   0
%  7   5  69   0   1
%      8  10  85
%  7   6  70   0   0
%  7   7  71   0   1
%      8  11  86
%  7   8  72   0   0
%  7   9  73   0   0
%  7  10  74   0   0
%  7  11  75   0   0
%
% 11  76  86  29 148
%  3   3   6   3   2  18   3   4   6   3   2   3   6   6   2  12   6   3   6   3   3   2   4  12   6   3   2   4  12 
%  8   1  76   0   1
%      9   6  92
%  8   2  77   0   0
%  8   3  78   0   0
%  8   4  79   0   1
%      9   9  95
%  8   5  80   1   1
%      7   1  65
%      9  10  96
%  8   6  81   0   0
%  8   7  82   0   0
%  8   8  83   0   0
%  8   9  84   0   0
%  8  10  85   1   0
%      7   5  69
%  8  11  86   1   0
%      7   7  71
%
% 10  87  96  16 100
%  2  12   6  12  12   4  12   6   4   2   3   3   6   6   4   6 
%  9   1  87   0   0
%  9   2  88   0   0
%  9   3  89   0   1
%     10   1  97
%  9   4  90   0   0
%  9   5  91   0   1
%     10   2  98
%  9   6  92   1   1
%      8   1  76
%     10   9 105
%  9   7  93   0   0
%  9   8  94   0   0
%  9   9  95   1   0
%      8   4  79
%  9  10  96   1   0
%      8   5  80
%
% 10  97 106  16  48
%  2   6   3   2   2   6   2   2   3   2   2   6   3   3   2   2 
% 10   1  97   1   0
%      9   3  89
% 10   2  98   1   0
%      9   5  91
% 10   3  99   0   0
% 10   4 100   0   0
% 10   5 101   0   0
% 10   6 102   0   0
% 10   7 103   0   0
% 10   8 104   0   0
% 10   9 105   1   0
%      9   6  92
% 10  10 106   0   0
%
%383
